233178
58,47,38,75,33,57,55,51,30,28,23,69,15,16,8,83,59,79,72,12,25,41,52,78,63,39,4,82,35,6,24,48,31,21,18,13,1,29,64,66,14,70,62,67,76,36,26,10,73,37,74,44,2,61,22,80,46,45,54,19,68,7,27,56,43,81,3,42,60,49,34,17,20,9,11,40,53,65,50,5,71,77,32